Crypto/instances/samples/hf_n23/hf_n23_cnf00.sol
c DPLL-like Solver for max-min SAT
f file hf_n23_cnf00.cnf
p cnf 23 83
s max  83 2 -1 -3 -7 -5 8 -14 15 -16 13 12 -10 -23 11 -9 -19 -6 -4 -22 -20 -17 -18 -21
s min  68 2 -1 3 7 -5 -8 -14 -15 16 -13 -12 10 23 -11 -9 -19 -6 -4 -22 -20 -17 -18 21